
Log started (V11.0.0) Sat Apr 19 19:06:15 2008

Tried aggregator 1 time.
Reduced MIP has 520 rows, 10001 columns, and 20020 nonzeros.
Presolve time =    0.06 sec.
Clique table members: 500.
MIP emphasis: balance optimality and feasibility.
MIP search method: dynamic search.
Parallel mode: none, using 1 thread.
Root relaxation solution time =    0.33 sec.

        Nodes                                         Cuts/
   Node  Left     Objective  IInf  Best Integer     Best Node    ItCnt     Gap

*     0+    0                        27295.0000      344.1097      742   98.74%
*     0+    0                          359.0000      344.1097      742    4.15%
      0     0      345.0000    36      359.0000      Fract: 8      756    3.90%
*     0+    0                          357.0000      345.0000      756    3.36%
      0     0      345.0000    38      357.0000     Covers: 3      776    3.36%
*     0+    0                          356.0000      345.0000      776    3.09%
      0     0      345.0000    37      356.0000     Covers: 2      786    3.09%
*     0+    0                          355.0000      345.0000      786    2.82%
*     0+    0                          353.0000      345.0000      786    2.27%
      0     2      345.0000    37      353.0000      345.0000      786    2.27%
    100    83      348.9152    37      353.0000      345.0000     4883    2.27%
*   200+  147                          349.0000      345.0000    10556    1.15%
    200   146      348.0063    38      349.0000      345.0000    10556    1.15%
*   250+   81                          348.0000      345.0000    11722    0.86%
    300   121      346.4880    42      348.0000      345.0000    13589    0.86%
    400   205      347.0000    30      348.0000      345.0000    17480    0.86%
*   498+  182                          347.0000      345.0000    23473    0.58%
    500   184      345.0000    36      347.0000      345.0000    23497    0.58%
    600   194      345.0000    39      347.0000      345.0000    28187    0.58%
    700   210      346.0000    32      347.0000      345.0000    32893    0.58%
    800   271      345.0000    37      347.0000      345.0000    36542    0.58%
    900   359      345.0000    37      347.0000      345.0000    39852    0.58%
   1000   442      346.0000    38      347.0000      345.0000    43328    0.58%
Elapsed time =  43.61 sec. (tree size =  3.88 MB, solutions = 9)
   1100   531      346.0000    42      347.0000      345.0000    46978    0.58%
   1200   616      345.0000    49      347.0000      345.0000    50805    0.58%
   1300   705    infeasible            347.0000      345.0000    54737    0.58%
   1400   792      346.0000    36      347.0000      345.0000    59473    0.58%
   1500   885      346.0000    40      347.0000      345.0000    63567    0.58%
   1600   971      345.0000    54      347.0000      345.0000    68923    0.58%
   1700  1048      346.0000    40      347.0000      345.0000    73261    0.58%
   1800  1127      345.0000    67      347.0000      345.0000    77797    0.58%
   1900  1217    infeasible            347.0000      345.0000    82683    0.58%
   2000  1307      346.0000    34      347.0000      345.0000    89842    0.58%
Elapsed time =  69.78 sec. (tree size = 13.02 MB, solutions = 9)
   2100  1385      345.0000    62      347.0000      345.0000    97268    0.58%
   2200  1474      345.0000    67      347.0000      345.0000   102533    0.58%
   2300  1573      346.0000    36      347.0000      345.0000   105142    0.58%
   2400  1659      346.0000    49      347.0000      345.0000   110853    0.58%
   2500  1744      345.0000    77      347.0000      345.0000   116616    0.58%
   2600  1832      346.0000    49      347.0000      345.0000   122698    0.58%
   2700  1923      346.0000    40      347.0000      345.0000   127262    0.58%
   2800  2013      345.0000    94      347.0000      345.0000   133300    0.58%
   2900  2104      346.0000    57      347.0000      345.0000   138805    0.58%
   3000  2191      345.0000    50      347.0000      345.0000   143575    0.58%
Elapsed time = 106.17 sec. (tree size = 24.94 MB, solutions = 9)
   3100  2282      345.0000    52      347.0000      345.0000   148187    0.58%
   3200  2382      345.0000    50      347.0000      345.0000   153468    0.58%
   3300  2456      345.0093    68      347.0000      345.0000   161818    0.58%
   3400  2552      345.0000    59      347.0000      345.0000   165644    0.58%
   3500  2645      346.0000    46      347.0000      345.0000   169869    0.58%
   3600  2734      346.0000    56      347.0000      345.0000   174992    0.58%
   3700  2830      345.0000    50      347.0000      345.0000   179182    0.58%
   3800  2921      346.0000    60      347.0000      345.0000   183641    0.58%
   3900  3009      345.0000   104      347.0000      345.0000   189232    0.58%
   4000  3099      346.0000    56      347.0000      345.0000   195437    0.58%
Elapsed time = 143.02 sec. (tree size = 38.38 MB, solutions = 9)
   4100  3194      346.0000    44      347.0000      345.0000   200277    0.58%
   4200  3294      346.0000    58      347.0000      345.0000   204997    0.58%
   4300  3383      346.0000    68      347.0000      345.0000   210812    0.58%
   4400  3476      346.0000    54      347.0000      345.0000   215643    0.58%
   4500  3571      346.0000    69      347.0000      345.0000   220523    0.58%
   4600  3664      346.0000    61      347.0000      345.0000   227038    0.58%
   4700  3744      346.0000    52      347.0000      345.0000   235826    0.58%
   4800  3837      346.0000    70      347.0000      345.0000   241278    0.58%
   4900  3933      345.0000    82      347.0000      345.0000   246175    0.58%
   5000  4020    infeasible            347.0000      345.0000   253531    0.58%
Elapsed time = 185.14 sec. (tree size = 54.09 MB, solutions = 9)
   5100  4110      346.0000    58      347.0000      345.0000   259486    0.58%
   5200  4187      346.0000    86      347.0000      345.0000   270579    0.58%
   5300  4276      346.0000    50      347.0000      345.0000   278629    0.58%
   5400  4370      346.0000    33      347.0000      345.0000   284602    0.58%
   5500  4463      346.0000    81      347.0000      345.0000   291183    0.58%
   5600  4556      346.0000    54      347.0000      345.0000   298654    0.58%
   5700  4641      346.0000    58      347.0000      345.0000   307065    0.58%
   5800  4734      346.0000    50      347.0000      345.0000   313282    0.58%
   5900  4822      345.0000    93      347.0000      345.0000   320194    0.58%
   6000  4921      346.0000    66      347.0000      345.0000   325174    0.58%
Elapsed time = 241.38 sec. (tree size = 71.00 MB, solutions = 9)
   6100  5012      346.0000    70      347.0000      345.0000   331872    0.58%
   6200  5101      346.0000    40      347.0000      345.0000   341240    0.58%
   6300  5184      346.0000    60      347.0000      345.0000   347546    0.58%
   6400  5278      346.0000    71      347.0000      345.0000   353971    0.58%
   6500  5373      346.0000    64      347.0000      345.0000   359724    0.58%
   6600  5468      346.0000    58      347.0000      345.0000   365991    0.58%
   6700  5561      346.0000    78      347.0000      345.0000   372308    0.58%
   6800  5656      346.0000    58      347.0000      345.0000   379189    0.58%
   6900  5749      346.0000    67      347.0000      345.0000   385193    0.58%
*  6998+ 1767                          346.0000      345.0000   395908    0.29%
   7000  1764    infeasible            346.0000      345.0000   399688    0.29%
Elapsed time = 309.84 sec. (tree size = 24.05 MB, solutions = 10)
   7100  1824      345.0000    94      346.0000      345.0000   433677    0.29%
   7200  1920      345.0000    74      346.0000      345.0000   442060    0.29%
   7300  1972      345.0000    76      346.0000      345.0000   478324    0.29%
   7400  2052      345.0000   111      346.0000      345.0000   494632    0.29%
   7500  2136    infeasible            346.0000      345.0000   505496    0.29%
   7600  2208      345.0000   109      346.0000      345.0000   535072    0.29%
   7700  2272      345.0000    74      346.0000      345.0000   565814    0.29%
   7800  2326      345.0000    73      346.0000      345.0000   598420    0.29%
   7900  2416      345.0000    77      346.0000      345.0000   608840    0.29%
   8000  2510      345.0000    92      346.0000      345.0000   616155    0.29%
Elapsed time = 551.41 sec. (tree size = 40.90 MB, solutions = 10)
   8100  2580      345.0000   101      346.0000      345.0000   636107    0.29%
   8200  2672      345.0000   101      346.0000      345.0000   645270    0.29%
   8300  2738      345.0000   114      346.0000      345.0000   675204    0.29%
   8400  2826      345.0000    87      346.0000      345.0000   686004    0.29%
   8500  2918      345.0000    98      346.0000      345.0000   696969    0.29%
   8600  2994      345.0000    81      346.0000      345.0000   710363    0.29%
   8700  3054      345.0000   120      346.0000      345.0000   751085    0.29%
   8800  3120      345.0000   126      346.0000      345.0000   778289    0.29%
   8900  3176      345.0000   114      346.0000      345.0000   817293    0.29%
   9000  3246      345.0000   125      346.0000      345.0000   840500    0.29%
Elapsed time = 833.95 sec. (tree size = 59.60 MB, solutions = 10)
   9100  3316      345.0000   132      346.0000      345.0000   865260    0.29%
   9200  3408      345.0000   112      346.0000      345.0000   877905    0.29%
   9300  3470    infeasible            346.0000      345.0000   909393    0.29%
   9400  3512      345.0000   134      346.0000      345.0000   958689    0.29%
   9500  3572    infeasible            346.0000      345.0000   983706    0.29%
   9600  3660      345.0000    99      346.0000      345.0000  1000057    0.29%
   9700  3734      345.0000   123      346.0000      345.0000  1028222    0.29%
   9800  3770      345.0000   126      346.0000      345.0000  1079448    0.29%
   9900  3852      345.0000   122      346.0000      345.0000  1099402    0.29%
  10000  3932      345.0000   112      346.0000      345.0000  1118592    0.29%
Elapsed time = 1219.88 sec. (tree size = 79.80 MB, solutions = 10)
  10100  4010    infeasible            346.0000      345.0000  1138721    0.29%
  10200  4052      345.0000   125      346.0000      345.0000  1192217    0.29%
  10300  4130      345.0000   127      346.0000      345.0000  1210786    0.29%
  10400  4182      345.0000   150      346.0000      345.0000  1254004    0.29%
  10500  4248    infeasible            346.0000      345.0000  1283436    0.29%
  10600  4316      345.0000   104      346.0000      345.0000  1313464    0.29%
  10700  4398      345.0000    81      346.0000      345.0000  1331688    0.29%
  10800  4488      345.0000   118      346.0000      345.0000  1344884    0.29%
  10900  4558      345.0000   132      346.0000      345.0000  1375084    0.29%
  11000  4626      345.0000   173      346.0000      345.0000  1402432    0.29%
Elapsed time = 1653.61 sec. (tree size = 102.01 MB, solutions = 10)
  11100  4696    infeasible            346.0000      345.0000  1428366    0.29%
  11200  4762      345.0000   152      346.0000      345.0000  1457391    0.29%
  11300  4812      345.0000   135      346.0000      345.0000  1491179    0.29%
  11400  4890      345.0000   140      346.0000      345.0000  1510702    0.29%
  11500  4930      345.0000   151      346.0000      345.0000  1562143    0.29%
  11600  4960      345.0000   102      346.0000      345.0000  1627185    0.29%
  11700  4992    infeasible            346.0000      345.0000  1682625    0.29%
  11800  5078    infeasible            346.0000      345.0000  1700797    0.29%
  11900  5134      345.0000   127      346.0000      345.0000  1740242    0.29%
  12000  5178    infeasible            346.0000      345.0000  1793514    0.29%
Elapsed time = 2295.88 sec. (tree size = 122.63 MB, solutions = 10)
  12100  5218      345.0000   162      346.0000      345.0000  1848600    0.29%
  12200  5298      345.0000   128      346.0000      345.0000  1866663    0.29%
  12300  5352      345.0000   123      346.0000      345.0000  1907241    0.29%
  12400  5432      345.0000   133      346.0000      345.0000  1925129    0.29%
  12500  5506    infeasible            346.0000      345.0000  1952642    0.29%
  12600  5572      345.0000   153      346.0000      345.0000  1982074    0.29%
  12700  5654      345.0000   135      346.0000      345.0000  1999748    0.29%
  12800  5720      345.0000   112      346.0000      345.0000  2028389    0.29%
  12900  5780      345.0000   137      346.0000      345.0000  2061224    0.29%
  13000  5858      345.0000   127      346.0000      345.0000  2082045    0.29%
Elapsed time = 2800.19 sec. (tree size = 148.10 MB, solutions = 10)
Nodefile size = 20.71 MB (19.58 MB after compression)
  13100  5906      345.0000   190      346.0000      345.0000  2119402    0.29%
  13200  5968    infeasible            346.0000      345.0000  2144768    0.29%
  13300  6040    infeasible            346.0000      345.0000  2175262    0.29%
  13400  6072      345.0000   136      346.0000      345.0000  2234952    0.29%
  13500  6150      345.0000   150      346.0000      345.0000  2256779    0.29%
  13600  6236    infeasible            346.0000      345.0000  2271571    0.29%
  13700  6294      345.0000   147      346.0000      345.0000  2310641    0.29%
  13800  6362      345.0000   183      346.0000      345.0000  2340404    0.29%
  13900  6436      345.0000   160      346.0000      345.0000  2363311    0.29%
  14000  6512      345.0000   182      346.0000      345.0000  2391901    0.29%
Elapsed time = 3436.09 sec. (tree size = 174.13 MB, solutions = 10)
Nodefile size = 46.23 MB (43.85 MB after compression)
  14100  6582      345.0000   179      346.0000      345.0000  2421645    0.29%
  14200  6666      345.0000   146      346.0000      345.0000  2441585    0.29%
  14300  6728      345.0000   114      346.0000      345.0000  2480136    0.29%
  14400  6782      345.0000   154      346.0000      345.0000  2520763    0.29%
  14500  6836    infeasible            346.0000      345.0000  2563633    0.29%
  14600  6896      345.0000   158      346.0000      345.0000  2612329    0.29%
  14700  6976      345.0000   172      346.0000      345.0000  2634352    0.29%
  14800  7034      345.0000   144      346.0000      345.0000  2669719    0.29%
  14900  7100      345.0000   131      346.0000      345.0000  2702890    0.29%
  15000  7166      345.0000   135      346.0000      345.0000  2732488    0.29%
Elapsed time = 4093.34 sec. (tree size = 201.47 MB, solutions = 10)
Nodefile size = 73.75 MB (70.12 MB after compression)
  15100  7230      345.0000   158      346.0000      345.0000  2767732    0.29%
  15200  7282      345.0000   185      346.0000      345.0000  2816997    0.29%
  15300  7348      345.0000   141      346.0000      345.0000  2846449    0.29%
  15400  7430      345.0000   134      346.0000      345.0000  2865197    0.29%
  15500  7478      345.0000   156      346.0000      345.0000  2911181    0.29%
  15600  7530      345.0000   171      346.0000      345.0000  2955944    0.29%
  15700  7590    infeasible            346.0000      345.0000  2988265    0.29%
  15800  7660      345.0000   147      346.0000      345.0000  3015417    0.29%
  15900  7730      345.0000   188      346.0000      345.0000  3047302    0.29%
  16000  7812      345.0000   157      346.0000      345.0000  3069492    0.29%
Elapsed time = 4774.16 sec. (tree size = 228.66 MB, solutions = 10)
Nodefile size = 101.27 MB (96.37 MB after compression)
  16100  7894      345.0000   140      346.0000      345.0000  3088919    0.29%
  16200  7954      345.0000   158      346.0000      345.0000  3123481    0.29%
  16300  8026      345.0000   174      346.0000      345.0000  3153980    0.29%
  16400  8108      345.0000   159      346.0000      345.0000  3176448    0.29%
  16500  8176      345.0000   190      346.0000      345.0000  3204594    0.29%
  16600  8260      345.0000   153      346.0000      345.0000  3225087    0.29%
  16700  8334      345.0000   146      346.0000      345.0000  3248151    0.29%
  16800  8364      345.0000   148      346.0000      345.0000  3308853    0.29%
  16900  8420    infeasible            346.0000      345.0000  3340571    0.29%
  17000  8486      345.0000   202      346.0000      345.0000  3365395    0.29%
Elapsed time = 5380.13 sec. (tree size = 256.51 MB, solutions = 10)
Nodefile size = 128.78 MB (122.63 MB after compression)
  17100  8554      345.0000   126      346.0000      345.0000  3395419    0.29%
  17200  8588    infeasible            346.0000      345.0000  3450017    0.29%
  17300  8662    infeasible            346.0000      345.0000  3475885    0.29%
  17400  8708      345.0000   175      346.0000      345.0000  3519457    0.29%
  17500  8762    infeasible            346.0000      345.0000  3557520    0.29%
  17600  8810    infeasible            346.0000      345.0000  3600630    0.29%
  17700  8890      345.0000   173      346.0000      345.0000  3627069    0.29%
  17800  8970    infeasible            346.0000      345.0000  3646879    0.29%
  17900  9028    infeasible            346.0000      345.0000  3684759    0.29%
  18000  9070    infeasible            346.0000      345.0000  3731099    0.29%
Elapsed time = 6063.81 sec. (tree size = 281.78 MB, solutions = 10)
Nodefile size = 154.36 MB (147.03 MB after compression)
  18100  9128    infeasible            346.0000      345.0000  3769009    0.29%
  18200  9200      345.0000   115      346.0000      345.0000  3792612    0.29%
  18300  9280      345.0000   170      346.0000      345.0000  3812392    0.29%
  18400  9340      345.0000   133      346.0000      345.0000  3846586    0.29%
  18500  9426      345.0000   142      346.0000      345.0000  3864258    0.29%
  18600  9512      345.0000   157      346.0000      345.0000  3883293    0.29%
  18700  9576    infeasible            346.0000      345.0000  3910280    0.29%
  18800  9664      345.0000   134      346.0000      345.0000  3925369    0.29%
  18900  9732      345.0000   191      346.0000      345.0000  3950360    0.29%
  19000  9790      345.0000   133      346.0000      345.0000  3984700    0.29%
Elapsed time = 6586.06 sec. (tree size = 310.65 MB, solutions = 10)
Nodefile size = 182.86 MB (174.18 MB after compression)
  19100  9842      345.0000   173      346.0000      345.0000  4028799    0.29%
  19200  9920      345.0000   127      346.0000      345.0000  4048480    0.29%
  19300 10000      345.0000   172      346.0000      345.0000  4066585    0.29%
  19400 10060      345.0000   126      346.0000      345.0000  4097278    0.29%
  19500 10136      345.0000   135      346.0000      345.0000  4120064    0.29%
  19600 10224      345.0000   148      346.0000      345.0000  4137391    0.29%
  19700 10280      345.0000   150      346.0000      345.0000  4172512    0.29%
  19800 10358      345.0000   185      346.0000      345.0000  4194920    0.29%
  19900 10414      345.0000   171      346.0000      345.0000  4232612    0.29%
  20000 10476      345.0000   152      346.0000      345.0000  4263493    0.29%
Elapsed time = 7157.47 sec. (tree size = 338.49 MB, solutions = 10)
Nodefile size = 210.52 MB (200.55 MB after compression)

Cover cuts applied:  2594
Zero-half cuts applied:  1
Gomory fractional cuts applied:  5

Solution pool: 10 solutions saved.

MIP - Time limit exceeded, integer feasible:  Objective = 3.4600000000e+002
Current MIP best bound = 3.4500000000e+002 (gap = 1, 0.29%)
Solution time = 7200.16 sec.  Iterations = 4285954  Nodes = 20098 (10543)


Incumbent solution
Variable Name           Solution Value
Cmax                        346.000000
X_1_20                        1.000000
X_2_16                        1.000000
X_3_10                        1.000000
X_4_5                         1.000000
X_5_14                        1.000000
X_6_13                        1.000000
X_7_17                        1.000000
X_8_3                         1.000000
X_9_15                        1.000000
X_10_15                       1.000000
X_11_16                       1.000000
X_12_7                        1.000000
X_13_7                        1.000000
X_14_14                       1.000000
X_15_9                        1.000000
X_16_13                       1.000000
X_17_11                       1.000000
X_18_3                        1.000000
X_19_10                       1.000000
X_20_14                       1.000000
X_21_18                       1.000000
X_22_20                       1.000000
X_23_12                       1.000000
X_24_16                       1.000000
X_25_10                       1.000000
X_26_18                       1.000000
X_27_14                       1.000000
X_28_7                        1.000000
X_29_18                       1.000000
X_30_3                        1.000000
X_31_5                        1.000000
X_32_11                       1.000000
X_33_12                       1.000000
X_34_2                        1.000000
X_35_4                        1.000000
X_36_1                        1.000000
X_37_3                        1.000000
X_38_19                       1.000000
X_39_13                       1.000000
X_40_17                       1.000000
X_41_13                       1.000000
X_42_4                        1.000000
X_43_13                       1.000000
X_44_20                       1.000000
X_45_12                       1.000000
X_46_9                        1.000000
X_47_11                       1.000000
X_48_11                       1.000000
X_49_5                        1.000000
X_50_19                       1.000000
X_51_10                       1.000000
X_52_2                        1.000000
X_53_4                        1.000000
X_54_4                        1.000000
X_55_9                        1.000000
X_56_14                       1.000000
X_57_18                       1.000000
X_58_8                        1.000000
X_59_19                       1.000000
X_60_9                        1.000000
X_61_4                        1.000000
X_62_18                       1.000000
X_63_17                       1.000000
X_64_9                        1.000000
X_65_5                        1.000000
X_66_18                       1.000000
X_67_3                        1.000000
X_68_10                       1.000000
X_69_2                        1.000000
X_70_6                        1.000000
X_71_7                        1.000000
X_72_19                       1.000000
X_73_18                       1.000000
X_74_9                        1.000000
X_75_1                        1.000000
X_76_9                        1.000000
X_77_5                        1.000000
X_78_10                       1.000000
X_79_3                        1.000000
X_80_6                        1.000000
X_81_18                       1.000000
X_82_20                       1.000000
X_83_20                       1.000000
X_84_15                       1.000000
X_85_6                        1.000000
X_86_6                        1.000000
X_87_2                        1.000000
X_88_2                        1.000000
X_89_1                        1.000000
X_90_19                       1.000000
X_91_12                       1.000000
X_92_5                        1.000000
X_93_6                        1.000000
X_94_15                       1.000000
X_95_4                        1.000000
X_96_1                        1.000000
X_97_8                        1.000000
X_98_4                        1.000000
X_99_13                       1.000000
X_100_10                      1.000000
X_101_4                       1.000000
X_102_15                      1.000000
X_103_14                      1.000000
X_104_3                       1.000000
X_105_10                      1.000000
X_106_16                      1.000000
X_107_6                       1.000000
X_108_16                      1.000000
X_109_11                      1.000000
X_110_11                      1.000000
X_111_11                      1.000000
X_112_1                       1.000000
X_113_1                       1.000000
X_114_15                      1.000000
X_115_19                      1.000000
X_116_10                      1.000000
X_117_11                      1.000000
X_118_2                       1.000000
X_119_16                      1.000000
X_120_6                       1.000000
X_121_13                      1.000000
X_122_18                      1.000000
X_123_16                      1.000000
X_124_5                       1.000000
X_125_9                       1.000000
X_126_14                      1.000000
X_127_4                       1.000000
X_128_8                       1.000000
X_129_2                       1.000000
X_130_5                       1.000000
X_131_12                      1.000000
X_132_6                       1.000000
X_133_6                       1.000000
X_134_1                       1.000000
X_135_8                       1.000000
X_136_19                      1.000000
X_137_17                      1.000000
X_138_17                      1.000000
X_139_19                      1.000000
X_140_12                      1.000000
X_141_19                      1.000000
X_142_20                      1.000000
X_143_15                      1.000000
X_144_8                       1.000000
X_145_6                       1.000000
X_146_20                      1.000000
X_147_2                       1.000000
X_148_20                      1.000000
X_149_16                      1.000000
X_150_7                       1.000000
X_151_8                       1.000000
X_152_11                      1.000000
X_153_6                       1.000000
X_154_2                       1.000000
X_155_20                      1.000000
X_156_7                       1.000000
X_157_11                      1.000000
X_158_3                       1.000000
X_159_7                       1.000000
X_160_5                       1.000000
X_161_7                       1.000000
X_162_10                      1.000000
X_163_12                      1.000000
X_164_15                      1.000000
X_165_20                      1.000000
X_166_9                       1.000000
X_167_6                       1.000000
X_168_12                      1.000000
X_169_2                       1.000000
X_170_7                       1.000000
X_171_5                       1.000000
X_172_19                      1.000000
X_173_17                      1.000000
X_174_1                       1.000000
X_175_12                      1.000000
X_176_12                      1.000000
X_177_20                      1.000000
X_178_15                      1.000000
X_179_2                       1.000000
X_180_16                      1.000000
X_181_16                      1.000000
X_182_1                       1.000000
X_183_7                       1.000000
X_184_11                      1.000000
X_185_17                      1.000000
X_186_19                      1.000000
X_187_20                      1.000000
X_188_9                       1.000000
X_189_5                       1.000000
X_190_15                      1.000000
X_191_17                      1.000000
X_192_4                       1.000000
X_193_8                       1.000000
X_194_9                       1.000000
X_195_3                       1.000000
X_196_12                      1.000000
X_197_18                      1.000000
X_198_17                      1.000000
X_199_14                      1.000000
X_200_7                       1.000000
X_201_16                      1.000000
X_202_15                      1.000000
X_203_15                      1.000000
X_204_8                       1.000000
X_205_8                       1.000000
X_206_5                       1.000000
X_207_16                      1.000000
X_208_1                       1.000000
X_209_10                      1.000000
X_210_6                       1.000000
X_211_17                      1.000000
X_212_9                       1.000000
X_213_17                      1.000000
X_214_11                      1.000000
X_215_15                      1.000000
X_216_4                       1.000000
X_217_13                      1.000000
X_218_15                      1.000000
X_219_8                       1.000000
X_220_9                       1.000000
X_221_7                       1.000000
X_222_10                      1.000000
X_223_10                      1.000000
X_224_19                      1.000000
X_225_20                      1.000000
X_226_8                       1.000000
X_227_15                      1.000000
X_228_17                      1.000000
X_229_2                       1.000000
X_230_11                      1.000000
X_231_2                       1.000000
X_232_7                       1.000000
X_233_19                      1.000000
X_234_5                       1.000000
X_235_7                       1.000000
X_236_20                      1.000000
X_237_3                       1.000000
X_238_16                      1.000000
X_239_16                      1.000000
X_240_6                       1.000000
X_241_6                       1.000000
X_242_4                       1.000000
X_243_5                       1.000000
X_244_2                       1.000000
X_245_14                      1.000000
X_246_14                      1.000000
X_247_2                       1.000000
X_248_1                       1.000000
X_249_2                       1.000000
X_250_8                       1.000000
X_251_13                      1.000000
X_252_12                      1.000000
X_253_13                      1.000000
X_254_12                      1.000000
X_255_3                       1.000000
X_256_6                       1.000000
X_257_13                      1.000000
X_258_1                       1.000000
X_259_12                      1.000000
X_260_1                       1.000000
X_261_6                       1.000000
X_262_19                      1.000000
X_263_4                       1.000000
X_264_19                      1.000000
X_265_8                       1.000000
X_266_3                       1.000000
X_267_13                      1.000000
X_268_18                      1.000000
X_269_1                       1.000000
X_270_13                      1.000000
X_271_20                      1.000000
X_272_9                       1.000000
X_273_14                      1.000000
X_274_20                      1.000000
X_275_5                       1.000000
X_276_20                      1.000000
X_277_16                      1.000000
X_278_4                       1.000000
X_279_14                      1.000000
X_280_16                      1.000000
X_281_1                       1.000000
X_282_14                      1.000000
X_283_16                      1.000000
X_284_13                      1.000000
X_285_6                       1.000000
X_286_9                       1.000000
X_287_13                      1.000000
X_288_15                      1.000000
X_289_17                      1.000000
X_290_14                      1.000000
X_291_10                      1.000000
X_292_10                      1.000000
X_293_20                      1.000000
X_294_17                      1.000000
X_295_7                       1.000000
X_296_6                       1.000000
X_297_18                      1.000000
X_298_2                       1.000000
X_299_19                      1.000000
X_300_5                       1.000000
X_301_13                      1.000000
X_302_19                      1.000000
X_303_5                       1.000000
X_304_15                      1.000000
X_305_19                      1.000000
X_306_20                      1.000000
X_307_18                      1.000000
X_308_12                      1.000000
X_309_3                       1.000000
X_310_10                      1.000000
X_311_1                       1.000000
X_312_14                      1.000000
X_313_19                      1.000000
X_314_14                      1.000000
X_315_1                       1.000000
X_316_17                      1.000000
X_317_4                       1.000000
X_318_8                       1.000000
X_319_9                       1.000000
X_320_11                      1.000000
X_321_13                      1.000000
X_322_6                       1.000000
X_323_17                      1.000000
X_324_13                      1.000000
X_325_18                      1.000000
X_326_4                       1.000000
X_327_14                      1.000000
X_328_1                       1.000000
X_329_9                       1.000000
X_330_19                      1.000000
X_331_12                      1.000000
X_332_6                       1.000000
X_333_17                      1.000000
X_334_7                       1.000000
X_335_12                      1.000000
X_336_8                       1.000000
X_337_17                      1.000000
X_338_17                      1.000000
X_339_9                       1.000000
X_340_19                      1.000000
X_341_7                       1.000000
X_342_10                      1.000000
X_343_11                      1.000000
X_344_4                       1.000000
X_345_11                      1.000000
X_346_14                      1.000000
X_347_1                       1.000000
X_348_15                      1.000000
X_349_17                      1.000000
X_350_15                      1.000000
X_351_7                       1.000000
X_352_1                       1.000000
X_353_5                       1.000000
X_354_8                       1.000000
X_355_8                       1.000000
X_356_2                       1.000000
X_357_4                       1.000000
X_358_17                      1.000000
X_359_4                       1.000000
X_360_1                       1.000000
X_361_3                       1.000000
X_362_14                      1.000000
X_363_13                      1.000000
X_364_10                      1.000000
X_365_20                      1.000000
X_366_4                       1.000000
X_367_11                      1.000000
X_368_12                      1.000000
X_369_9                       1.000000
X_370_12                      1.000000
X_371_16                      1.000000
X_372_16                      1.000000
X_373_20                      1.000000
X_374_3                       1.000000
X_375_5                       1.000000
X_376_8                       1.000000
X_377_5                       1.000000
X_378_7                       1.000000
X_379_8                       1.000000
X_380_18                      1.000000
X_381_14                      1.000000
X_382_10                      1.000000
X_383_19                      1.000000
X_384_11                      1.000000
X_385_9                       1.000000
X_386_17                      1.000000
X_387_13                      1.000000
X_388_18                      1.000000
X_389_18                      1.000000
X_390_12                      1.000000
X_391_1                       1.000000
X_392_16                      1.000000
X_393_4                       1.000000
X_394_10                      1.000000
X_395_20                      1.000000
X_396_18                      1.000000
X_397_11                      1.000000
X_398_13                      1.000000
X_399_19                      1.000000
X_400_8                       1.000000
X_401_8                       1.000000
X_402_4                       1.000000
X_403_3                       1.000000
X_404_11                      1.000000
X_405_16                      1.000000
X_406_13                      1.000000
X_407_11                      1.000000
X_408_11                      1.000000
X_409_8                       1.000000
X_410_4                       1.000000
X_411_9                       1.000000
X_412_7                       1.000000
X_413_2                       1.000000
X_414_2                       1.000000
X_415_5                       1.000000
X_416_7                       1.000000
X_417_9                       1.000000
X_418_15                      1.000000
X_419_15                      1.000000
X_420_16                      1.000000
X_421_4                       1.000000
X_422_18                      1.000000
X_423_20                      1.000000
X_424_19                      1.000000
X_425_6                       1.000000
X_426_3                       1.000000
X_427_7                       1.000000
X_428_3                       1.000000
X_429_15                      1.000000
X_430_2                       1.000000
X_431_18                      1.000000
X_432_9                       1.000000
X_433_16                      1.000000
X_434_14                      1.000000
X_435_8                       1.000000
X_436_16                      1.000000
X_437_1                       1.000000
X_438_3                       1.000000
X_439_3                       1.000000
X_440_19                      1.000000
X_441_8                       1.000000
X_442_2                       1.000000
X_443_14                      1.000000
X_444_18                      1.000000
X_445_3                       1.000000
X_446_14                      1.000000
X_447_4                       1.000000
X_448_3                       1.000000
X_449_17                      1.000000
X_450_2                       1.000000
X_451_5                       1.000000
X_452_6                       1.000000
X_453_18                      1.000000
X_454_13                      1.000000
X_455_12                      1.000000
X_456_20                      1.000000
X_457_11                      1.000000
X_458_15                      1.000000
X_459_20                      1.000000
X_460_14                      1.000000
X_461_7                       1.000000
X_462_3                       1.000000
X_463_13                      1.000000
X_464_8                       1.000000
X_465_14                      1.000000
X_466_14                      1.000000
X_467_12                      1.000000
X_468_17                      1.000000
X_469_7                       1.000000
X_470_2                       1.000000
X_471_10                      1.000000
X_472_7                       1.000000
X_473_15                      1.000000
X_474_17                      1.000000
X_475_4                       1.000000
X_476_15                      1.000000
X_477_4                       1.000000
X_478_17                      1.000000
X_479_1                       1.000000
X_480_18                      1.000000
X_481_3                       1.000000
X_482_4                       1.000000
X_483_7                       1.000000
X_484_18                      1.000000
X_485_12                      1.000000
X_486_9                       1.000000
X_487_6                       1.000000
X_488_10                      1.000000
X_489_2                       1.000000
X_490_16                      1.000000
X_491_5                       1.000000
X_492_15                      1.000000
X_493_20                      1.000000
X_494_2                       1.000000
X_495_18                      1.000000
X_496_14                      1.000000
X_497_10                      1.000000
X_498_13                      1.000000
X_499_13                      1.000000
X_500_16                      1.000000
All other variables in the range 1-10001 are 0.
